GLPSOL--GLPK LP/MIP Solver 5.0
Parameter(s) specified in the command line:
 --lp ../modeles/15_429.lp --log 15_429.log
Reading problem data from '../modeles/15_429.lp'...
6496 rows, 12900 columns, 45120 non-zeros
6435 integer variables, all of which are binary
19417 lines were read
GLPK Integer Optimizer 5.0
6496 rows, 12900 columns, 45120 non-zeros
6435 integer variables, all of which are binary
Preprocessing...
6390 constraint coefficient(s) were reduced
6496 rows, 12885 columns, 45105 non-zeros
6435 integer variables, all of which are binary
Scaling...
 A: min|aij| =  2.173e-05  max|aij| =  4.000e+00  ratio =  1.840e+05
GM: min|aij| =  4.828e-02  max|aij| =  2.071e+01  ratio =  4.290e+02
EQ: min|aij| =  2.331e-03  max|aij| =  1.000e+00  ratio =  4.290e+02
2N: min|aij| =  1.953e-03  max|aij| =  1.764e+00  ratio =  9.032e+02
Constructing initial basis...
Size of triangular part is 6496
Solving LP relaxation...
GLPK Simplex Optimizer 5.0
6496 rows, 12885 columns, 45105 non-zeros
      0: obj =   3.000000000e+01 inf =   7.450e+01 (31)
Perturbing LP to avoid stalling [199]...
    344: obj =   4.998397088e-01 inf =   0.000e+00 (0)
Removing LP perturbation [1072]...
*  1072: obj =  -3.872596154e+00 inf =   0.000e+00 (0) 1
OPTIMAL LP SOLUTION FOUND
Integer optimization begins...
Long-step dual simplex will be used
+  1072: mip =     not found yet >=              -inf        (1; 0)
+  1240: mip =     not found yet >=  -3.872596154e+00        (168; 0)
+  1444: mip =     not found yet >=  -3.872596154e+00        (370; 0)
+  1691: mip =     not found yet >=  -3.872596154e+00        (615; 0)
+  1695: >>>>>  -3.872596154e+00 >=  -3.872596154e+00 < 0.1% (617; 0)
+  1695: mip =  -3.872596154e+00 >=     tree is empty   0.0% (0; 1233)
INTEGER OPTIMAL SOLUTION FOUND
Time used:   15.5 secs
Memory used: 19.0 Mb (19932917 bytes)
